benchmarks/crosswords/mzn/crossword3_48.ozn
output ([(((("\n"++problem_name)++"\n")++"L:")++show(L))++"\n"]++[if problem[i,j]==0 then "*" else show(letters[fix(L[problem[i,j]])]) endif++if j==cols then "\n" else "" endif | i in 1..rows, j in 1..cols, ])++["\n"];
int: rows = 23;
int: cols = 23;
array [1..rows,1..cols] of int: problem = [|1,2,3,4,5,0,6,7,8,9,10,0,11,12,13,14,15,0,16,17,18,19,20|21,22,23,24,25,26,27,28,29,30,31,0,32,33,34,35,36,0,37,38,39,40,41|42,43,44,45,46,47,48,49,50,51,52,53,54,55,56,57,58,0,59,60,61,62,63|64,65,66,67,0,68,69,70,71,72,0,73,74,75,76,77,0,78,79,80,81,82,83|84,85,86,87,88,0,89,90,91,0,92,93,94,0,95,96,97,98,99,0,100,101,102|0,0,0,103,104,105,106,107,0,108,109,110,111,112,0,113,114,115,0,116,117,118,0|119,120,121,0,122,123,124,0,125,126,127,128,129,130,131,0,132,133,134,135,136,137,138|139,140,141,142,143,144,0,145,146,147,148,149,0,150,151,152,0,153,154,155,156,157,158|159,160,161,162,163,0,164,165,166,167,168,0,169,170,171,172,173,0,174,175,176,177,178|179,180,181,182,0,183,184,185,186,187,0,188,189,190,191,192,193,194,0,195,196,197,198|199,200,201,202,203,204,205,0,206,207,208,209,210,0,211,212,213,214,215,0,216,217,218|0,0,219,220,221,222,223,224,0,225,226,227,228,229,0,230,231,232,233,234,235,0,0|236,237,238,0,239,240,241,242,243,0,244,245,246,247,248,0,249,250,251,252,253,254,255|256,257,258,259,0,260,261,262,263,264,265,266,0,267,268,269,270,271,0,272,273,274,275|276,277,278,279,280,0,281,282,283,284,285,0,286,287,288,289,290,0,291,292,293,294,295|296,297,298,299,300,301,0,302,303,304,0,305,306,307,308,309,0,310,311,312,313,314,315|316,317,318,319,320,321,322,0,323,324,325,326,327,328,329,0,330,331,332,0,333,334,335|0,336,337,338,0,339,340,341,0,342,343,344,345,346,0,347,348,349,350,351,0,0,0|352,353,354,0,355,356,357,358,359,0,360,361,362,0,363,364,365,0,366,367,368,369,370|371,372,373,374,375,376,0,377,378,379,380,381,0,382,383,384,385,386,0,387,388,389,390|391,392,393,394,395,0,396,397,398,399,400,401,402,403,404,405,406,407,408,409,410,411,412|413,414,415,416,417,0,418,419,420,421,422,0,423,424,425,426,427,428,429,430,431,432,433|434,435,436,437,438,0,439,440,441,442,443,0,444,445,446,447,448,0,449,450,451,452,453|];
int: num_letters = 26;
array [1..num_letters] of string: letters = ["a","b","c","d","e","f","g","h","i","j","k","l","m","n","o","p","q","r","s","t","u","v","w","x","y","z"];
int: N = 453;
array [0..N] of int: L;
string: problem_name = "23.09, 23 x 23";
